(set-logic QF_NRA)
(set-info :source |Benchmarks generated from hycomp (https://es-static.fbk.eu/tools/hycomp/). BMC instances of non-linear hybrid automata taken from: Alessandro Cimatti, Sergio Mover, Stefano Tonetta, A quantifier-free SMT encoding of non-linear hybrid automata, FMCAD 2012 and Alessandro Cimatti, Sergio Mover, Stefano Tonetta, Quantier-free encoding of invariants for Hybrid Systems, Formal Methods in System Design. This instance solves a BMC problem of depth 2 and uses the quantifier free encoding with equivalences and lemmas encoding. Contacts: Sergio Mover (mover@fbk.eu), Stefano Tonetta (tonettas@fbk.eu), Alessandro Cimatti (cimatti@fbk.eu).|)
(set-info :smt-lib-version 2.0)
(set-info :category "industrial")
(set-info :status unsat)
;; MathSAT API call trace
;; generated on Mon Mar 19 10:44:07 2012
(declare-fun b.event_is_timed__AT2 () Bool)
(declare-fun b.counter.1__AT1 () Bool)
(declare-fun b.counter.2__AT1 () Bool)
(declare-fun b.event_is_timed__AT0 () Bool)
(declare-fun b.counter.3__AT1 () Bool)
(declare-fun b.bool_atom__AT0 () Bool)
(declare-fun b.bool_atom__AT2 () Bool)
(declare-fun b.x__AT0 () Real)
(declare-fun b.y__AT2 () Real)
(declare-fun b.time__AT2 () Real)
(declare-fun b.counter.0__AT2 () Bool)
(declare-fun b.delta__AT2 () Real)
(declare-fun b.delta__AT1 () Real)
(declare-fun b.speed_y__AT1 () Real)
(declare-fun b.counter.1__AT2 () Bool)
(declare-fun b.x__AT2 () Real)
(declare-fun b.time__AT1 () Real)
(declare-fun b.EVENT.0__AT2 () Bool)
(declare-fun b.EVENT.0__AT1 () Bool)
(declare-fun b.counter.2__AT2 () Bool)
(declare-fun b.time__AT0 () Real)
(declare-fun b.EVENT.1__AT2 () Bool)
(declare-fun b.EVENT.1__AT1 () Bool)
(declare-fun b.counter.3__AT2 () Bool)
(declare-fun b.delta__AT0 () Real)
(declare-fun b.EVENT.1__AT0 () Bool)
(declare-fun b.speed_y__AT2 () Real)
(declare-fun b.y__AT0 () Real)
(declare-fun b.counter.0__AT0 () Bool)
(declare-fun b.EVENT.0__AT0 () Bool)
(declare-fun b.counter.3__AT0 () Bool)
(declare-fun b.counter.1__AT0 () Bool)
(declare-fun b.event_is_timed__AT1 () Bool)
(declare-fun b.bool_atom__AT1 () Bool)
(declare-fun b.g__AT0 () Real)
(declare-fun b.speed_y__AT0 () Real)
(declare-fun b.x__AT1 () Real)
(declare-fun b.y__AT1 () Real)
(declare-fun b.counter.2__AT0 () Bool)
(declare-fun b.counter.0__AT1 () Bool)
(assert (let ((.def_70 (* (- 1.0) b.g__AT0)))
(let ((.def_73 (* (/ 1 2) .def_70)))
(let ((.def_85 (* 2.0 .def_73)))
(let ((.def_517 (* .def_85 b.delta__AT2)))
(let ((.def_518 (+ b.speed_y__AT2 .def_517)))
(let ((.def_535 (<= .def_518 0.0 )))
(let ((.def_536 (not .def_535)))
(let ((.def_533 (<= b.speed_y__AT2 0.0 )))
(let ((.def_556 (or .def_533 .def_536)))
(let ((.def_521 (<= 0.0 b.speed_y__AT2)))
(let ((.def_522 (not .def_521)))
(let ((.def_519 (<= 0.0 .def_518)))
(let ((.def_555 (or .def_519 .def_522)))
(let ((.def_557 (and .def_555 .def_556)))
(let ((.def_125 (<= 0.0 b.g__AT0)))
(let ((.def_558 (or .def_125 .def_557)))
(let ((.def_520 (not .def_519)))
(let ((.def_552 (or .def_520 .def_521)))
(let ((.def_534 (not .def_533)))
(let ((.def_551 (or .def_534 .def_535)))
(let ((.def_553 (and .def_551 .def_552)))
(let ((.def_120 (<= b.g__AT0 0.0 )))
(let ((.def_554 (or .def_120 .def_553)))
(let ((.def_559 (and .def_554 .def_558)))
(let ((.def_548 (and .def_533 .def_535)))
(let ((.def_547 (and .def_519 .def_521)))
(let ((.def_549 (or .def_547 .def_548)))
(let ((.def_508 (* b.speed_y__AT2 b.delta__AT2)))
(let ((.def_506 (* b.delta__AT2 b.delta__AT2)))
(let ((.def_507 (* .def_73 .def_506)))
(let ((.def_509 (+ .def_507 .def_508)))
(let ((.def_492 (* (- 1.0) b.x__AT2)))
(let ((.def_493 (* b.x__AT2 .def_492)))
(let ((.def_510 (* (- 1.0) .def_493)))
(let ((.def_513 (+ .def_510 .def_509)))
(let ((.def_514 (+ b.y__AT2 .def_513)))
(let ((.def_527 (<= .def_514 0.0 )))
(let ((.def_541 (not .def_527)))
(let ((.def_525 (<= b.y__AT2 .def_493)))
(let ((.def_542 (or .def_525 .def_541)))
(let ((.def_494 (<= .def_493 b.y__AT2)))
(let ((.def_539 (not .def_494)))
(let ((.def_515 (<= 0.0 .def_514)))
(let ((.def_540 (or .def_515 .def_539)))
(let ((.def_543 (and .def_540 .def_542)))
(let ((.def_537 (or .def_534 .def_536)))
(let ((.def_538 (not .def_537)))
(let ((.def_544 (or .def_538 .def_543)))
(let ((.def_529 (not .def_515)))
(let ((.def_530 (or .def_494 .def_529)))
(let ((.def_526 (not .def_525)))
(let ((.def_528 (or .def_526 .def_527)))
(let ((.def_531 (and .def_528 .def_530)))
(let ((.def_523 (or .def_520 .def_522)))
(let ((.def_524 (not .def_523)))
(let ((.def_532 (or .def_524 .def_531)))
(let ((.def_545 (and .def_532 .def_544)))
(let ((.def_516 (and .def_494 .def_515)))
(let ((.def_546 (and .def_516 .def_545)))
(let ((.def_550 (and .def_546 .def_549)))
(let ((.def_560 (and .def_550 .def_559)))
(let ((.def_62 (<= b.g__AT0 10.0 )))
(let ((.def_61 (<= 8.0 b.g__AT0)))
(let ((.def_63 (and .def_61 .def_62)))
(let ((.def_561 (and .def_63 .def_560)))
(let ((.def_201 (not b.counter.0__AT1)))
(let ((.def_191 (not b.counter.1__AT1)))
(let ((.def_498 (and .def_191 .def_201)))
(let ((.def_501 (or b.counter.3__AT1 .def_498)))
(let ((.def_196 (not b.counter.2__AT1)))
(let ((.def_499 (and .def_196 .def_498)))
(let ((.def_210 (not b.counter.3__AT1)))
(let ((.def_500 (or .def_210 .def_499)))
(let ((.def_502 (and .def_500 .def_501)))
(let ((.def_495 (and .def_63 .def_494)))
(let ((.def_489 (not b.EVENT.0__AT2)))
(let ((.def_487 (not b.EVENT.1__AT2)))
(let ((.def_490 (or .def_487 .def_489)))
(let ((.def_6 (not b.counter.0__AT2)))
(let ((.def_4 (not b.counter.1__AT2)))
(let ((.def_480 (or .def_4 .def_6)))
(let ((.def_484 (or b.counter.3__AT2 .def_480)))
(let ((.def_481 (or b.counter.2__AT2 .def_480)))
(let ((.def_9 (not b.counter.2__AT2)))
(let ((.def_479 (or .def_6 .def_9)))
(let ((.def_482 (and .def_479 .def_481)))
(let ((.def_12 (not b.counter.3__AT2)))
(let ((.def_483 (or .def_12 .def_482)))
(let ((.def_485 (and .def_483 .def_484)))
(let ((.def_491 (and .def_485 .def_490)))
(let ((.def_496 (and .def_491 .def_495)))
(let ((.def_474 (<= 0.0 b.delta__AT1)))
(let ((.def_280 (not b.EVENT.0__AT1)))
(let ((.def_278 (not b.EVENT.1__AT1)))
(let ((.def_352 (and .def_278 .def_280)))
(let ((.def_354 (not .def_352)))
(let ((.def_475 (or .def_354 .def_474)))
(let ((.def_476 (or b.EVENT.1__AT1 .def_475)))
(let ((.def_389 (= b.bool_atom__AT1 b.bool_atom__AT2)))
(let ((.def_385 (= b.counter.0__AT2 b.counter.0__AT1)))
(let ((.def_383 (= b.counter.1__AT2 b.counter.1__AT1)))
(let ((.def_381 (= b.counter.2__AT2 b.counter.2__AT1)))
(let ((.def_380 (= b.counter.3__AT2 b.counter.3__AT1)))
(let ((.def_382 (and .def_380 .def_381)))
(let ((.def_384 (and .def_382 .def_383)))
(let ((.def_386 (and .def_384 .def_385)))
(let ((.def_470 (and .def_386 .def_389)))
(let ((.def_471 (or .def_354 .def_470)))
(let ((.def_472 (or b.EVENT.1__AT1 .def_471)))
(let ((.def_459 (* .def_70 b.delta__AT1)))
(let ((.def_460 (* (- 1.0) b.speed_y__AT2)))
(let ((.def_463 (+ .def_460 .def_459)))
(let ((.def_464 (+ b.speed_y__AT1 .def_463)))
(let ((.def_465 (= .def_464 0.0 )))
(let ((.def_450 (* (- 1.0) b.y__AT2)))
(let ((.def_297 (* b.speed_y__AT1 b.delta__AT1)))
(let ((.def_454 (+ .def_297 .def_450)))
(let ((.def_295 (* b.delta__AT1 b.delta__AT1)))
(let ((.def_296 (* .def_73 .def_295)))
(let ((.def_455 (+ .def_296 .def_454)))
(let ((.def_456 (+ b.y__AT1 .def_455)))
(let ((.def_457 (= .def_456 0.0 )))
(let ((.def_372 (= b.x__AT1 b.x__AT2)))
(let ((.def_458 (and .def_372 .def_457)))
(let ((.def_466 (and .def_458 .def_465)))
(let ((.def_467 (or .def_354 .def_466)))
(let ((.def_375 (= b.y__AT1 b.y__AT2)))
(let ((.def_445 (and .def_372 .def_375)))
(let ((.def_378 (= b.speed_y__AT1 b.speed_y__AT2)))
(let ((.def_446 (and .def_378 .def_445)))
(let ((.def_442 (= b.delta__AT1 0.0 )))
(let ((.def_443 (and .def_352 .def_442)))
(let ((.def_444 (not .def_443)))
(let ((.def_447 (or .def_444 .def_446)))
(let ((.def_448 (or b.EVENT.1__AT1 .def_447)))
(let ((.def_435 (and .def_378 .def_386)))
(let ((.def_436 (or b.bool_atom__AT1 .def_435)))
(let ((.def_411 (or .def_6 b.counter.0__AT1)))
(let ((.def_410 (or b.counter.0__AT2 .def_201)))
(let ((.def_412 (and .def_410 .def_411)))
(let ((.def_413 (and .def_4 .def_412)))
(let ((.def_414 (or b.counter.1__AT1 .def_413)))
(let ((.def_409 (or b.counter.1__AT2 .def_191)))
(let ((.def_415 (and .def_409 .def_414)))
(let ((.def_426 (and .def_9 .def_415)))
(let ((.def_427 (or b.counter.2__AT1 .def_426)))
(let ((.def_421 (and .def_4 .def_201)))
(let ((.def_422 (or b.counter.1__AT1 .def_421)))
(let ((.def_423 (and .def_409 .def_422)))
(let ((.def_424 (and b.counter.2__AT2 .def_423)))
(let ((.def_425 (or .def_196 .def_424)))
(let ((.def_428 (and .def_425 .def_427)))
(let ((.def_429 (and b.counter.3__AT2 .def_428)))
(let ((.def_430 (or b.counter.3__AT1 .def_429)))
(let ((.def_416 (and b.counter.2__AT2 .def_415)))
(let ((.def_417 (or b.counter.2__AT1 .def_416)))
(let ((.def_405 (or b.counter.1__AT2 b.counter.1__AT1)))
(let ((.def_403 (and .def_4 b.counter.0__AT2)))
(let ((.def_404 (or .def_191 .def_403)))
(let ((.def_406 (and .def_404 .def_405)))
(let ((.def_407 (and .def_9 .def_406)))
(let ((.def_408 (or .def_196 .def_407)))
(let ((.def_418 (and .def_408 .def_417)))
(let ((.def_419 (and .def_12 .def_418)))
(let ((.def_420 (or .def_210 .def_419)))
(let ((.def_431 (and .def_420 .def_430)))
(let ((.def_400 (* b.speed_y__AT2 b.speed_y__AT2)))
(let ((.def_187 (* b.speed_y__AT1 b.speed_y__AT1)))
(let ((.def_401 (= .def_187 .def_400)))
(let ((.def_398 (+ b.speed_y__AT1 b.speed_y__AT2)))
(let ((.def_399 (= .def_398 0.0 )))
(let ((.def_402 (and .def_399 .def_401)))
(let ((.def_432 (and .def_402 .def_431)))
(let ((.def_397 (not b.bool_atom__AT1)))
(let ((.def_433 (or .def_397 .def_432)))
(let ((.def_283 (* (- 1.0) b.x__AT1)))
(let ((.def_284 (* b.x__AT1 .def_283)))
(let ((.def_394 (= b.y__AT1 .def_284)))
(let ((.def_310 (<= 0.0 b.speed_y__AT1)))
(let ((.def_311 (not .def_310)))
(let ((.def_395 (and .def_311 .def_394)))
(let ((.def_396 (= b.bool_atom__AT1 .def_395)))
(let ((.def_434 (and .def_396 .def_433)))
(let ((.def_437 (and .def_434 .def_436)))
(let ((.def_438 (and .def_372 .def_437)))
(let ((.def_439 (and .def_375 .def_438)))
(let ((.def_440 (or .def_352 .def_439)))
(let ((.def_441 (or b.EVENT.1__AT1 .def_440)))
(let ((.def_449 (and .def_441 .def_448)))
(let ((.def_468 (and .def_449 .def_467)))
(let ((.def_359 (= b.time__AT1 b.time__AT2)))
(let ((.def_373 (and .def_359 .def_372)))
(let ((.def_376 (and .def_373 .def_375)))
(let ((.def_379 (and .def_376 .def_378)))
(let ((.def_387 (and .def_379 .def_386)))
(let ((.def_390 (and .def_387 .def_389)))
(let ((.def_391 (or .def_278 .def_390)))
(let ((.def_362 (* (- 1.0) b.time__AT2)))
(let ((.def_365 (+ b.delta__AT1 .def_362)))
(let ((.def_366 (+ b.time__AT1 .def_365)))
(let ((.def_367 (= .def_366 0.0 )))
(let ((.def_368 (or .def_354 .def_367)))
(let ((.def_369 (or b.EVENT.1__AT1 .def_368)))
(let ((.def_360 (or .def_352 .def_359)))
(let ((.def_361 (or b.EVENT.1__AT1 .def_360)))
(let ((.def_370 (and .def_361 .def_369)))
(let ((.def_392 (and .def_370 .def_391)))
(let ((.def_356 (= .def_354 b.event_is_timed__AT2)))
(let ((.def_353 (= b.event_is_timed__AT1 .def_352)))
(let ((.def_357 (and .def_353 .def_356)))
(let ((.def_393 (and .def_357 .def_392)))
(let ((.def_469 (and .def_393 .def_468)))
(let ((.def_473 (and .def_469 .def_472)))
(let ((.def_477 (and .def_473 .def_476)))
(let ((.def_478 (and .def_278 .def_477)))
(let ((.def_497 (and .def_478 .def_496)))
(let ((.def_503 (and .def_497 .def_502)))
(let ((.def_306 (* .def_85 b.delta__AT1)))
(let ((.def_307 (+ b.speed_y__AT1 .def_306)))
(let ((.def_324 (<= .def_307 0.0 )))
(let ((.def_325 (not .def_324)))
(let ((.def_322 (<= b.speed_y__AT1 0.0 )))
(let ((.def_345 (or .def_322 .def_325)))
(let ((.def_308 (<= 0.0 .def_307)))
(let ((.def_344 (or .def_308 .def_311)))
(let ((.def_346 (and .def_344 .def_345)))
(let ((.def_347 (or .def_125 .def_346)))
(let ((.def_309 (not .def_308)))
(let ((.def_341 (or .def_309 .def_310)))
(let ((.def_323 (not .def_322)))
(let ((.def_340 (or .def_323 .def_324)))
(let ((.def_342 (and .def_340 .def_341)))
(let ((.def_343 (or .def_120 .def_342)))
(let ((.def_348 (and .def_343 .def_347)))
(let ((.def_337 (and .def_322 .def_324)))
(let ((.def_336 (and .def_308 .def_310)))
(let ((.def_338 (or .def_336 .def_337)))
(let ((.def_298 (+ .def_296 .def_297)))
(let ((.def_299 (* (- 1.0) .def_284)))
(let ((.def_302 (+ .def_299 .def_298)))
(let ((.def_303 (+ b.y__AT1 .def_302)))
(let ((.def_316 (<= .def_303 0.0 )))
(let ((.def_330 (not .def_316)))
(let ((.def_314 (<= b.y__AT1 .def_284)))
(let ((.def_331 (or .def_314 .def_330)))
(let ((.def_285 (<= .def_284 b.y__AT1)))
(let ((.def_328 (not .def_285)))
(let ((.def_304 (<= 0.0 .def_303)))
(let ((.def_329 (or .def_304 .def_328)))
(let ((.def_332 (and .def_329 .def_331)))
(let ((.def_326 (or .def_323 .def_325)))
(let ((.def_327 (not .def_326)))
(let ((.def_333 (or .def_327 .def_332)))
(let ((.def_318 (not .def_304)))
(let ((.def_319 (or .def_285 .def_318)))
(let ((.def_315 (not .def_314)))
(let ((.def_317 (or .def_315 .def_316)))
(let ((.def_320 (and .def_317 .def_319)))
(let ((.def_312 (or .def_309 .def_311)))
(let ((.def_313 (not .def_312)))
(let ((.def_321 (or .def_313 .def_320)))
(let ((.def_334 (and .def_321 .def_333)))
(let ((.def_305 (and .def_285 .def_304)))
(let ((.def_335 (and .def_305 .def_334)))
(let ((.def_339 (and .def_335 .def_338)))
(let ((.def_349 (and .def_339 .def_348)))
(let ((.def_350 (and .def_63 .def_349)))
(let ((.def_32 (not b.counter.0__AT0)))
(let ((.def_30 (not b.counter.1__AT0)))
(let ((.def_33 (and .def_30 .def_32)))
(let ((.def_290 (or .def_33 b.counter.3__AT0)))
(let ((.def_38 (not b.counter.3__AT0)))
(let ((.def_35 (not b.counter.2__AT0)))
(let ((.def_36 (and .def_33 .def_35)))
(let ((.def_289 (or .def_36 .def_38)))
(let ((.def_291 (and .def_289 .def_290)))
(let ((.def_286 (and .def_63 .def_285)))
(let ((.def_281 (or .def_278 .def_280)))
(let ((.def_271 (or .def_191 .def_201)))
(let ((.def_275 (or b.counter.3__AT1 .def_271)))
(let ((.def_272 (or b.counter.2__AT1 .def_271)))
(let ((.def_270 (or .def_196 .def_201)))
(let ((.def_273 (and .def_270 .def_272)))
(let ((.def_274 (or .def_210 .def_273)))
(let ((.def_276 (and .def_274 .def_275)))
(let ((.def_282 (and .def_276 .def_281)))
(let ((.def_287 (and .def_282 .def_286)))
(let ((.def_265 (<= 0.0 b.delta__AT0)))
(let ((.def_51 (not b.EVENT.0__AT0)))
(let ((.def_49 (not b.EVENT.1__AT0)))
(let ((.def_134 (and .def_49 .def_51)))
(let ((.def_136 (not .def_134)))
(let ((.def_266 (or .def_136 .def_265)))
(let ((.def_267 (or b.EVENT.1__AT0 .def_266)))
(let ((.def_176 (= b.bool_atom__AT0 b.bool_atom__AT1)))
(let ((.def_171 (= b.counter.0__AT0 b.counter.0__AT1)))
(let ((.def_168 (= b.counter.1__AT0 b.counter.1__AT1)))
(let ((.def_165 (= b.counter.2__AT0 b.counter.2__AT1)))
(let ((.def_163 (= b.counter.3__AT0 b.counter.3__AT1)))
(let ((.def_166 (and .def_163 .def_165)))
(let ((.def_169 (and .def_166 .def_168)))
(let ((.def_172 (and .def_169 .def_171)))
(let ((.def_261 (and .def_172 .def_176)))
(let ((.def_262 (or .def_136 .def_261)))
(let ((.def_263 (or b.EVENT.1__AT0 .def_262)))
(let ((.def_250 (* b.delta__AT0 .def_70)))
(let ((.def_251 (* (- 1.0) b.speed_y__AT1)))
(let ((.def_254 (+ .def_251 .def_250)))
(let ((.def_255 (+ b.speed_y__AT0 .def_254)))
(let ((.def_256 (= .def_255 0.0 )))
(let ((.def_242 (* (- 1.0) b.y__AT1)))
(let ((.def_76 (* b.delta__AT0 b.speed_y__AT0)))
(let ((.def_245 (+ .def_76 .def_242)))
(let ((.def_69 (* b.delta__AT0 b.delta__AT0)))
(let ((.def_74 (* .def_69 .def_73)))
(let ((.def_246 (+ .def_74 .def_245)))
(let ((.def_247 (+ b.y__AT0 .def_246)))
(let ((.def_248 (= .def_247 0.0 )))
(let ((.def_154 (= b.x__AT0 b.x__AT1)))
(let ((.def_249 (and .def_154 .def_248)))
(let ((.def_257 (and .def_249 .def_256)))
(let ((.def_258 (or .def_136 .def_257)))
(let ((.def_157 (= b.y__AT0 b.y__AT1)))
(let ((.def_237 (and .def_154 .def_157)))
(let ((.def_160 (= b.speed_y__AT0 b.speed_y__AT1)))
(let ((.def_238 (and .def_160 .def_237)))
(let ((.def_234 (= b.delta__AT0 0.0 )))
(let ((.def_235 (and .def_134 .def_234)))
(let ((.def_236 (not .def_235)))
(let ((.def_239 (or .def_236 .def_238)))
(let ((.def_240 (or b.EVENT.1__AT0 .def_239)))
(let ((.def_227 (and .def_160 .def_172)))
(let ((.def_228 (or b.bool_atom__AT0 .def_227)))
(let ((.def_202 (or b.counter.0__AT0 .def_201)))
(let ((.def_200 (or .def_32 b.counter.0__AT1)))
(let ((.def_203 (and .def_200 .def_202)))
(let ((.def_204 (and .def_191 .def_203)))
(let ((.def_205 (or b.counter.1__AT0 .def_204)))
(let ((.def_199 (or .def_30 b.counter.1__AT1)))
(let ((.def_206 (and .def_199 .def_205)))
(let ((.def_218 (and .def_196 .def_206)))
(let ((.def_219 (or b.counter.2__AT0 .def_218)))
(let ((.def_213 (and .def_32 .def_191)))
(let ((.def_214 (or b.counter.1__AT0 .def_213)))
(let ((.def_215 (and .def_199 .def_214)))
(let ((.def_216 (and b.counter.2__AT1 .def_215)))
(let ((.def_217 (or .def_35 .def_216)))
(let ((.def_220 (and .def_217 .def_219)))
(let ((.def_221 (and b.counter.3__AT1 .def_220)))
(let ((.def_222 (or b.counter.3__AT0 .def_221)))
(let ((.def_207 (and b.counter.2__AT1 .def_206)))
(let ((.def_208 (or b.counter.2__AT0 .def_207)))
(let ((.def_194 (or b.counter.1__AT0 b.counter.1__AT1)))
(let ((.def_192 (and b.counter.0__AT1 .def_191)))
(let ((.def_193 (or .def_30 .def_192)))
(let ((.def_195 (and .def_193 .def_194)))
(let ((.def_197 (and .def_195 .def_196)))
(let ((.def_198 (or .def_35 .def_197)))
(let ((.def_209 (and .def_198 .def_208)))
(let ((.def_211 (and .def_209 .def_210)))
(let ((.def_212 (or .def_38 .def_211)))
(let ((.def_223 (and .def_212 .def_222)))
(let ((.def_188 (* b.speed_y__AT0 b.speed_y__AT0)))
(let ((.def_189 (= .def_187 .def_188)))
(let ((.def_185 (+ b.speed_y__AT0 b.speed_y__AT1)))
(let ((.def_186 (= .def_185 0.0 )))
(let ((.def_190 (and .def_186 .def_189)))
(let ((.def_224 (and .def_190 .def_223)))
(let ((.def_184 (not b.bool_atom__AT0)))
(let ((.def_225 (or .def_184 .def_224)))
(let ((.def_56 (* (- 1.0) b.x__AT0)))
(let ((.def_57 (* b.x__AT0 .def_56)))
(let ((.def_181 (= b.y__AT0 .def_57)))
(let ((.def_90 (<= 0.0 b.speed_y__AT0)))
(let ((.def_91 (not .def_90)))
(let ((.def_182 (and .def_91 .def_181)))
(let ((.def_183 (= b.bool_atom__AT0 .def_182)))
(let ((.def_226 (and .def_183 .def_225)))
(let ((.def_229 (and .def_226 .def_228)))
(let ((.def_230 (and .def_154 .def_229)))
(let ((.def_231 (and .def_157 .def_230)))
(let ((.def_232 (or .def_134 .def_231)))
(let ((.def_233 (or b.EVENT.1__AT0 .def_232)))
(let ((.def_241 (and .def_233 .def_240)))
(let ((.def_259 (and .def_241 .def_258)))
(let ((.def_141 (= b.time__AT0 b.time__AT1)))
(let ((.def_155 (and .def_141 .def_154)))
(let ((.def_158 (and .def_155 .def_157)))
(let ((.def_161 (and .def_158 .def_160)))
(let ((.def_173 (and .def_161 .def_172)))
(let ((.def_177 (and .def_173 .def_176)))
(let ((.def_178 (or .def_49 .def_177)))
(let ((.def_144 (* (- 1.0) b.time__AT1)))
(let ((.def_147 (+ b.delta__AT0 .def_144)))
(let ((.def_148 (+ b.time__AT0 .def_147)))
(let ((.def_149 (= .def_148 0.0 )))
(let ((.def_150 (or .def_136 .def_149)))
(let ((.def_151 (or b.EVENT.1__AT0 .def_150)))
(let ((.def_142 (or .def_134 .def_141)))
(let ((.def_143 (or b.EVENT.1__AT0 .def_142)))
(let ((.def_152 (and .def_143 .def_151)))
(let ((.def_179 (and .def_152 .def_178)))
(let ((.def_138 (= .def_136 b.event_is_timed__AT1)))
(let ((.def_135 (= b.event_is_timed__AT0 .def_134)))
(let ((.def_139 (and .def_135 .def_138)))
(let ((.def_180 (and .def_139 .def_179)))
(let ((.def_260 (and .def_180 .def_259)))
(let ((.def_264 (and .def_260 .def_263)))
(let ((.def_268 (and .def_264 .def_267)))
(let ((.def_269 (and .def_49 .def_268)))
(let ((.def_288 (and .def_269 .def_287)))
(let ((.def_292 (and .def_288 .def_291)))
(let ((.def_86 (* b.delta__AT0 .def_85)))
(let ((.def_87 (+ b.speed_y__AT0 .def_86)))
(let ((.def_104 (<= .def_87 0.0 )))
(let ((.def_105 (not .def_104)))
(let ((.def_102 (<= b.speed_y__AT0 0.0 )))
(let ((.def_127 (or .def_102 .def_105)))
(let ((.def_88 (<= 0.0 .def_87)))
(let ((.def_126 (or .def_88 .def_91)))
(let ((.def_128 (and .def_126 .def_127)))
(let ((.def_129 (or .def_125 .def_128)))
(let ((.def_89 (not .def_88)))
(let ((.def_122 (or .def_89 .def_90)))
(let ((.def_103 (not .def_102)))
(let ((.def_121 (or .def_103 .def_104)))
(let ((.def_123 (and .def_121 .def_122)))
(let ((.def_124 (or .def_120 .def_123)))
(let ((.def_130 (and .def_124 .def_129)))
(let ((.def_117 (and .def_102 .def_104)))
(let ((.def_116 (and .def_88 .def_90)))
(let ((.def_118 (or .def_116 .def_117)))
(let ((.def_77 (+ .def_74 .def_76)))
(let ((.def_78 (* (- 1.0) .def_57)))
(let ((.def_81 (+ .def_78 .def_77)))
(let ((.def_82 (+ b.y__AT0 .def_81)))
(let ((.def_96 (<= .def_82 0.0 )))
(let ((.def_110 (not .def_96)))
(let ((.def_94 (<= b.y__AT0 .def_57)))
(let ((.def_111 (or .def_94 .def_110)))
(let ((.def_58 (<= .def_57 b.y__AT0)))
(let ((.def_108 (not .def_58)))
(let ((.def_83 (<= 0.0 .def_82)))
(let ((.def_109 (or .def_83 .def_108)))
(let ((.def_112 (and .def_109 .def_111)))
(let ((.def_106 (or .def_103 .def_105)))
(let ((.def_107 (not .def_106)))
(let ((.def_113 (or .def_107 .def_112)))
(let ((.def_98 (not .def_83)))
(let ((.def_99 (or .def_58 .def_98)))
(let ((.def_95 (not .def_94)))
(let ((.def_97 (or .def_95 .def_96)))
(let ((.def_100 (and .def_97 .def_99)))
(let ((.def_92 (or .def_89 .def_91)))
(let ((.def_93 (not .def_92)))
(let ((.def_101 (or .def_93 .def_100)))
(let ((.def_114 (and .def_101 .def_113)))
(let ((.def_84 (and .def_58 .def_83)))
(let ((.def_115 (and .def_84 .def_114)))
(let ((.def_119 (and .def_115 .def_118)))
(let ((.def_131 (and .def_119 .def_130)))
(let ((.def_132 (and .def_63 .def_131)))
(let ((.def_64 (and .def_58 .def_63)))
(let ((.def_52 (or .def_49 .def_51)))
(let ((.def_42 (or .def_30 .def_32)))
(let ((.def_46 (or b.counter.3__AT0 .def_42)))
(let ((.def_43 (or b.counter.2__AT0 .def_42)))
(let ((.def_41 (or .def_32 .def_35)))
(let ((.def_44 (and .def_41 .def_43)))
(let ((.def_45 (or .def_38 .def_44)))
(let ((.def_47 (and .def_45 .def_46)))
(let ((.def_53 (and .def_47 .def_52)))
(let ((.def_65 (and .def_53 .def_64)))
(let ((.def_39 (and .def_36 .def_38)))
(let ((.def_27 (= b.y__AT0 10.0 )))
(let ((.def_23 (= b.x__AT0 0.0 )))
(let ((.def_19 (= b.time__AT0 0.0 )))
(let ((.def_21 (and .def_19 b.event_is_timed__AT0)))
(let ((.def_24 (and .def_21 .def_23)))
(let ((.def_28 (and .def_24 .def_27)))
(let ((.def_40 (and .def_28 .def_39)))
(let ((.def_66 (and .def_40 .def_65)))
(let ((.def_7 (and .def_4 .def_6)))
(let ((.def_14 (or .def_7 b.counter.3__AT2)))
(let ((.def_10 (and .def_7 .def_9)))
(let ((.def_13 (or .def_10 .def_12)))
(let ((.def_15 (and .def_13 .def_14)))
(let ((.def_16 (not .def_15)))
(let ((.def_67 (and .def_16 .def_66)))
(let ((.def_133 (and .def_67 .def_132)))
(let ((.def_293 (and .def_133 .def_292)))
(let ((.def_351 (and .def_293 .def_350)))
(let ((.def_504 (and .def_351 .def_503)))
(let ((.def_562 (and .def_504 .def_561)))
.def_562)))))))))))))))))))))))))))))))))))))))))))))))))))))))))))))))))))))))))))))))))))))))))))))))))))))))))))))))))))))))))))))))))))))))))))))))))))))))))))))))))))))))))))))))))))))))))))))))))))))))))))))))))))))))))))))))))))))))))))))))))))))))))))))))))))))))))))))))))))))))))))))))))))))))))))))))))))))))))))))))))))))))))))))))))))))))))))))))))))))))))))))))))))))))))))))))))))))))))))))))))))))))))))))))))))))))))))))))))))))))))))))))))))))))))))))))))))))))))))))))))))))))))))))))
(check-sat)
(exit)
